Route #1: 1 3 42 15 39 10 37 23 18 22 25
Route #2: 1 32 9 16 29 28 20
Route #3: 1 5 35 40 13 4 7 26
Route #4: 1 8 6 33 38 43 12 11 27
Route #5: 1 34 17 21 19 36 2 30
Route #6: 1 14 44 41 24 31
cost 1076
